
Gurobi 13.0.2 (win64) logging started Thu Jul 23 12:24:09 2026

Set parameter LogFile to value "E:\codes\ExactEBRP\results\gf_gurobi_performance_recovery_round29\development\high_imbalance_seed3202__c3_replica__60s\external\native_logs\R.1.0.0.0.0.1.1.0.1.0_terminal_mip.gurobi.log"
Gurobi Optimizer version 13.0.2 build v13.0.2rc1 (win64 - Windows 10.0 (19045.2))

CPU model: 12th Gen Intel(R) Core(TM) i7-12700KF, instruction set [SSE2|AVX|AVX2]
Thread count: 12 physical cores, 20 logical processors, using up to 1 threads

Non-default parameters:
TimeLimit  1.4068563000000012e+00
MIPGap  0
MIPGapAbs  0
LogToConsole  0
Threads  1

Optimize a model with 11895 rows, 3372 columns and 67322 nonzeros (Min)
Model fingerprint: 0x66a3de31
Model has 21 linear objective coefficients
Variable types: 1683 continuous, 1689 integer (1489 binary)
Coefficient statistics:
  Matrix range     [1e-02, 2e+04]
  Objective range  [1e-02, 1e+00]
  Bounds range     [5e-01, 2e+03]
  RHS range        [5e-01, 5e+04]

Presolve removed 2401 rows and 94 columns
Presolve time: 0.19s
Presolved: 9494 rows, 3278 columns, 57802 nonzeros
Variable types: 1627 continuous, 1651 integer (1466 binary)

Root relaxation: objective 1.611007e+00, 3973 iterations, 0.22 seconds (0.57 work units)

    Nodes    |    Current Node    |     Objective Bounds      |     Work
 Expl Unexpl |  Obj  Depth IntInf | Incumbent    BestBd   Gap | It/Node Time

     0     0    1.61101    0  278          -    1.61101      -     -    0s
     0     0    1.67924    0  229          -    1.67924      -     -    0s
     0     0    1.73027    0  283          -    1.73027      -     -    1s
     0     0    1.73181    0  269          -    1.73181      -     -    1s
     0     0          -    0               -    1.73181      -     -    1s

Cutting planes:
  Learned: 11
  Gomory: 4
  Cover: 28
  Implied bound: 125
  Clique: 20
  MIR: 240
  StrongCG: 6
  Flow cover: 85
  Zero half: 4
  Network: 22
  RLT: 9
  Relax-and-lift: 46
  BQP: 10

Explored 1 nodes (6257 simplex iterations) in 1.41 seconds (2.68 work units)
Thread count was 1 (of 20 available processors)

Solution count 0

Time limit reached
Best objective -, best bound 1.731813684182e+00, gap -

User-callback calls 1083, time in user-callback 0.00 sec
